qbf_easy_train/easy_3961_SAT.qdimacs
p cnf 27 73
a 17 2 5 0
e 1 3 4 6 7 8 9 10 11 12 13 14 15 16 18 19 20 21 22 23 24 25 26 27 0
2 3 -4 0
-2 -3 -4 0
2 -3 4 0
-2 3 4 0
-1 -4 -5 0
1 4 -5 0
-1 4 5 0
1 -4 5 0
7 6 0
7 2 0
-6 -2 -7 0
-8 -5 0
-8 -7 0
5 7 8 0
6 -1 -9 0
-6 1 -9 0
6 1 9 0
-6 -1 9 0
10 -9 0
10 -9 0
9 -10 0
-11 -10 0
-11 2 0
10 -2 11 0
14 12 0
14 -13 0
-12 13 -14 0
15 11 0
15 14 0
-11 -14 -15 0
8 -15 -16 0
-8 15 -16 0
8 15 16 0
-8 -15 16 0
18 17 0
18 -12 0
-17 12 -18 0
-18 19 -20 0
18 -19 -20 0
-18 -19 20 0
18 19 20 0
21 -9 0
21 14 0
9 -14 -21 0
20 21 -22 0
-20 -21 -22 0
20 -21 22 0
-20 21 22 0
-16 -22 -23 0
16 22 -23 0
-16 22 23 0
16 -22 23 0
24 -17 0
24 1 0
17 -1 -24 0
-25 -23 0
-25 24 0
23 -24 25 0
26 6 0
26 -12 0
-6 12 -26 0
25 26 -27 0
-25 -26 -27 0
25 -26 27 0
-25 26 27 0
11 -26 19 -1 17 0
22 3 23 -27 7 -14 18 0
9 -6 -11 13 0
-10 -21 -19 -3 6 0
5 23 -10 0
-26 -24 -6 11 -23 -1 -15 0
26 18 -13 23 0
27 0
