sat_easy_train/easy_3961_SAT.dimacs
p cnf 139 471
2 1 0
2 1 0
-1 -2 0
-3 -4 -5 0
3 4 -5 0
-3 4 5 0
3 -4 5 0
9 -7 0
9 -8 0
7 8 -9 0
6 -9 -10 0
-6 9 -10 0
6 9 10 0
-6 -9 10 0
11 5 0
11 10 0
-5 -10 -11 0
-2 -11 -12 0
2 11 -12 0
-2 11 12 0
2 -11 12 0
-14 13 0
-14 5 0
-13 -5 14 0
-15 -12 0
-15 -14 0
12 14 15 0
17 -16 0
17 -6 0
16 6 -17 0
18 9 0
18 17 0
-9 -17 -18 0
-21 -19 0
-21 -20 0
19 20 21 0
-22 -18 0
-22 -21 0
18 21 22 0
-24 -20 0
-24 -23 0
20 23 24 0
25 16 0
25 24 0
-16 -24 -25 0
-26 -20 0
-26 -25 0
20 25 26 0
22 26 -27 0
-22 -26 -27 0
22 -26 27 0
-22 26 27 0
28 15 0
28 -27 0
-15 27 -28 0
-20 13 -29 0
20 -13 -29 0
-20 -13 29 0
20 13 29 0
30 -29 0
30 8 0
29 -8 -30 0
33 -31 0
33 32 0
31 -32 -33 0
30 33 -34 0
-30 -33 -34 0
30 -33 34 0
-30 33 34 0
35 -32 0
35 -24 0
32 24 -35 0
3 -19 -36 0
-3 19 -36 0
3 19 36 0
-3 -19 36 0
37 -35 0
37 36 0
35 -36 -37 0
-1 -37 -38 0
1 37 -38 0
-1 37 38 0
1 -37 38 0
-34 -38 -39 0
34 38 -39 0
-34 38 39 0
34 -38 39 0
28 39 -40 0
-28 -39 -40 0
28 -39 40 0
-28 39 40 0
-41 -6 0
-41 -30 0
6 30 41 0
-4 42 -43 0
4 -42 -43 0
-4 -42 43 0
4 42 43 0
44 4 0
44 -8 0
-4 8 -44 0
-45 -8 0
-45 -44 0
8 44 45 0
-46 43 0
-46 45 0
-43 -45 46 0
-47 41 0
-47 -46 0
-41 46 47 0
31 -46 -48 0
-31 46 -48 0
31 46 48 0
-31 -46 48 0
49 16 0
49 -35 0
-16 35 -49 0
-50 -48 0
-50 49 0
48 -49 50 0
-52 51 0
-52 -3 0
-51 3 52 0
-54 52 0
-54 -53 0
-52 53 54 0
-13 -8 -55 0
13 8 -55 0
-13 8 55 0
13 -8 55 0
-42 -55 -56 0
42 55 -56 0
-42 55 56 0
42 -55 56 0
-57 -20 0
-57 13 0
20 -13 57 0
-58 -8 0
-58 57 0
8 -57 58 0
59 -19 0
59 -58 0
19 58 -59 0
17 -59 -60 0
-17 59 -60 0
17 59 60 0
-17 -59 60 0
61 20 0
61 60 0
-20 -60 -61 0
-62 6 0
-62 61 0
-6 -61 62 0
63 -62 0
63 9 0
62 -9 -63 0
-64 -56 0
-64 -63 0
56 63 64 0
-1 -20 -65 0
1 20 -65 0
-1 20 65 0
1 -20 65 0
-66 65 0
-66 -4 0
-65 4 66 0
-67 35 0
-67 66 0
-35 -66 67 0
-68 -64 0
-68 67 0
64 -67 68 0
-69 52 0
-69 9 0
-52 -9 69 0
70 -69 0
70 -9 0
69 9 -70 0
68 70 -71 0
-68 -70 -71 0
68 -70 71 0
-68 70 71 0
72 -54 0
72 71 0
54 -71 -72 0
-8 -23 -73 0
8 23 -73 0
-8 23 73 0
8 -23 73 0
-74 23 0
-74 73 0
-23 -73 74 0
75 -74 0
75 74 0
76 35 0
76 3 0
-35 -3 -76 0
-77 -73 0
-77 -32 0
73 32 77 0
-78 76 0
-78 -77 0
-76 77 78 0
79 60 0
79 -78 0
-60 78 -79 0
-79 10 -80 0
79 -10 -80 0
-79 -10 80 0
79 10 80 0
81 75 0
81 -80 0
-75 80 -81 0
-82 -72 0
-82 81 0
72 -81 82 0
-83 50 0
-83 -82 0
-50 82 83 0
-47 83 -84 0
47 -83 -84 0
-47 -83 84 0
47 83 84 0
-69 -24 -85 0
69 24 -85 0
-69 24 85 0
69 -24 85 0
86 -20 0
86 -29 0
20 29 -86 0
85 86 -87 0
-85 -86 -87 0
85 -86 87 0
-85 86 87 0
-88 -8 0
-88 43 0
8 -43 88 0
-89 -58 0
-89 -88 0
58 88 89 0
51 31 -90 0
-51 -31 -90 0
51 -31 90 0
-51 31 90 0
91 -41 0
91 90 0
41 -90 -91 0
89 -91 -92 0
-89 91 -92 0
89 91 92 0
-89 -91 92 0
-79 -76 -93 0
79 76 -93 0
-79 76 93 0
79 -76 93 0
94 4 0
94 93 0
-4 -93 -94 0
95 32 0
95 -10 0
-32 10 -95 0
-96 31 0
-96 -16 0
-31 16 96 0
97 -95 0
97 -96 0
95 96 -97 0
98 10 0
98 -10 0
-74 -98 -99 0
74 98 -99 0
-74 98 99 0
74 -98 99 0
-100 59 0
-100 6 0
-59 -6 100 0
101 76 0
101 55 0
-76 -55 -101 0
-100 -101 -102 0
100 101 -102 0
-100 101 102 0
100 -101 102 0
-98 -45 -103 0
98 45 -103 0
-98 45 103 0
98 -45 103 0
104 35 0
104 62 0
-35 -62 -104 0
105 104 0
105 55 0
-104 -55 -105 0
106 -103 0
106 -105 0
103 105 -106 0
102 -106 -107 0
-102 106 -107 0
102 106 107 0
-102 -106 107 0
-45 -108 0
45 -108 0
109 -3 0
109 23 0
3 -23 -109 0
109 -17 -110 0
-109 17 -110 0
109 17 110 0
-109 -17 110 0
108 -110 -111 0
-108 110 -111 0
108 110 111 0
-108 -110 111 0
112 30 0
112 46 0
-30 -46 -112 0
-113 -69 0
-113 78 0
69 -78 113 0
-42 -1 -114 0
42 1 -114 0
-42 1 114 0
42 -1 114 0
115 113 0
115 114 0
-113 -114 -115 0
116 112 0
116 115 0
-112 -115 -116 0
-117 -111 0
-117 116 0
111 -116 117 0
-118 107 0
-118 -117 0
-107 117 118 0
-99 118 -119 0
99 -118 -119 0
-99 -118 119 0
99 118 119 0
120 97 0
120 -119 0
-97 119 -120 0
94 120 -121 0
-94 -120 -121 0
94 -120 121 0
-94 120 121 0
122 92 0
122 -121 0
-92 121 -122 0
123 87 0
123 -122 0
-87 122 -123 0
124 -24 0
124 8 0
24 -8 -124 0
-125 -44 0
-125 -31 0
44 31 125 0
-41 125 -126 0
41 -125 -126 0
-41 -125 126 0
41 125 126 0
24 126 -127 0
-24 -126 -127 0
24 -126 127 0
-24 126 127 0
-124 -127 -128 0
124 127 -128 0
-124 127 128 0
124 -127 128 0
-4 -98 -129 0
4 98 -129 0
-4 98 129 0
4 -98 129 0
24 33 -130 0
-24 -33 -130 0
24 -33 130 0
-24 33 130 0
129 130 -131 0
-129 -130 -131 0
129 -130 131 0
-129 130 131 0
-132 -128 0
-132 -131 0
128 131 132 0
-19 33 -133 0
19 -33 -133 0
-19 -33 133 0
19 33 133 0
134 29 0
134 125 0
-29 -125 -134 0
135 133 0
135 -134 0
-133 134 -135 0
-136 -132 0
-136 -135 0
132 135 136 0
137 123 0
137 136 0
-123 -136 -137 0
84 137 -138 0
-84 -137 -138 0
84 -137 138 0
-84 137 138 0
40 138 -139 0
-40 -138 -139 0
40 -138 139 0
-40 138 139 0
-22 -60 -116 -139 0
-14 -136 -90 4 95 137 0
73 -42 4 -15 0
-87 -72 -11 83 107 0
125 -66 77 127 115 27 0
31 33 104 -15 135 43 0
-126 13 -134 0
-102 108 3 0
123 72 -24 0
47 -99 89 0
69 115 104 15 75 0
-18 -51 0
-84 -44 -129 -48 0
109 -124 -46 0
91 -116 -132 -107 0
-26 60 -104 -128 -27 0
38 56 -99 103 107 -106 0
75 1 0
114 -136 0
57 14 -104 0
-70 120 65 -122 -13 0
-47 117 -8 -104 121 0
-114 5 -47 -20 31 0
-82 -50 76 0
126 48 67 -24 -2 -55 0
112 11 85 -60 65 26 0
38 -104 -5 -80 82 0
38 -130 -52 7 -68 -54 0
-23 -100 123 -50 0
-98 -25 -36 -37 -96 0
87 -32 0
-125 -123 20 19 0
-24 100 13 64 -108 0
119 -110 55 0
6 30 -29 60 16 0
57 67 -130 113 0
97 -136 -63 0
68 -62 45 0
-41 27 130 139 0
-44 -94 53 111 0
21 112 -121 0
-106 -100 0
55 78 0
15 12 -86 0
-101 -90 -33 -40 96 -82 0
-96 -35 -90 -126 38 123 0
103 -139 -107 0
-16 -23 53 126 -4 0
124 86 -59 -128 0
97 115 62 0
-118 -13 -14 0
118 129 122 -85 -82 0
-18 135 31 -87 62 -60 0
46 96 -13 0
71 -119 0
26 -50 76 0
-70 -52 101 -49 46 124 0
-32 45 -39 58 102 -10 0
-17 -97 -77 0
-137 114 49 78 0
31 6 8 17 0
139 0
